(set-info :status unknown)
(declare-fun C2 () (_ BitVec 39))
(declare-fun %B () (_ BitVec 39))
(declare-fun %A () (_ BitVec 39))
(declare-fun C1 () (_ BitVec 39))
(assert
 (let (($x12411 (and (distinct (bvand (bvsub (bvxor %A C1) %B) C2) (bvand (bvsub %A %B) C2)) true)))
 (let ((?x9086 (bvand C1 C2)))
 (let (($x8224 (= ?x9086 (_ bv0 39))))
 (let (($x12421 (= (bvand (bvadd C2 (_ bv1 39)) (bvsub (bvadd C2 (_ bv1 39)) (_ bv1 39))) (_ bv0 39))))
 (and $x12421 $x8224 $x12411))))))
(check-sat)
